NAME: kroA17
TYPE: TSP
COMMENT: 7-city problem A (Krolak/Felts/Nelson)
DIMENSION: 7
EDGE_WEIGHT_TYPE : EUC_2D
NODE_COORD_SECTION
1 1380 939
2 2848 96
3 3510 1671
4 457 334
5 3888 666
6 984 965
7 2721 1482